set STOCKS := AAPL JPM NVDA AMZN GOOGL PG UNH MSFT JNJ XOM;

param r :=
    AAPL 0.001104
    JPM 0.000910
    NVDA 0.001267
    AMZN 0.000351
    GOOGL 0.000279
    PG 0.000310
    UNH 0.000447
    MSFT -0.000372
    JNJ 0.000343
    XOM 0.000270
;

param target_return := 0.000491;
